! Touchstone simulation data from EMX version 5.7
# Hz S RI R 50
1.000000e+08 9.394976e-03 7.092447e-03 9.905480e-01 -1.198981e-02 9.905480e-01 -1.198981e-02 9.396396e-03 7.091817e-03
2.000000e+08 9.627926e-03 1.417701e-02 9.901448e-01 -2.396004e-02 9.901448e-01 -2.396004e-02 9.633469e-03 1.417537e-02
3.000000e+08 1.001101e-02 2.124338e-02 9.894789e-01 -3.589645e-02 9.894789e-01 -3.589645e-02 1.002327e-02 2.124006e-02
4.000000e+08 1.053759e-02 2.828411e-02 9.885583e-01 -4.778764e-02 9.885583e-01 -4.778764e-02 1.055904e-02 2.827814e-02
5.000000e+08 1.120067e-02 3.529469e-02 9.873911e-01 -5.962515e-02 9.873911e-01 -5.962515e-02 1.123363e-02 3.528489e-02
6.000000e+08 1.199404e-02 4.227299e-02 9.859852e-01 -7.140294e-02 9.859852e-01 -7.140294e-02 1.204073e-02 4.225797e-02
7.000000e+08 1.291293e-02 4.921830e-02 9.843469e-01 -8.311637e-02 9.843469e-01 -8.311637e-02 1.297541e-02 4.919642e-02
8.000000e+08 1.395388e-02 5.613044e-02 9.824817e-01 -9.476141e-02 9.824817e-01 -9.476141e-02 1.403410e-02 5.609988e-02
9.000000e+08 1.511455e-02 6.300934e-02 9.803941e-01 -1.063342e-01 9.803941e-01 -1.063342e-01 1.521426e-02 6.296803e-02
1.000000e+09 1.639329e-02 6.985470e-02 9.780881e-01 -1.178306e-01 9.780881e-01 -1.178306e-01 1.651407e-02 6.980041e-02
1.100000e+09 1.778894e-02 7.666602e-02 9.755675e-01 -1.292466e-01 9.755675e-01 -1.292466e-01 1.793216e-02 7.659634e-02
1.200000e+09 1.930061e-02 8.344257e-02 9.728360e-01 -1.405778e-01 9.728360e-01 -1.405778e-01 1.946743e-02 8.335494e-02
1.300000e+09 2.092760e-02 9.018345e-02 9.698972e-01 -1.518199e-01 9.698972e-01 -1.518199e-01 2.111897e-02 9.007518e-02
1.400000e+09 2.266935e-02 9.688762e-02 9.667550e-01 -1.629686e-01 9.667550e-01 -1.629686e-01 2.288599e-02 9.675590e-02
1.500000e+09 2.452537e-02 1.035539e-01 9.634131e-01 -1.740196e-01 9.634131e-01 -1.740196e-01 2.476779e-02 1.033959e-01
1.600000e+09 2.649528e-02 1.101812e-01 9.598755e-01 -1.849686e-01 9.598755e-01 -1.849686e-01 2.676374e-02 1.099938e-01
1.700000e+09 2.857875e-02 1.167680e-01 9.561463e-01 -1.958114e-01 9.561463e-01 -1.958114e-01 2.887328e-02 1.165482e-01
1.800000e+09 3.077552e-02 1.233130e-01 9.522295e-01 -2.065440e-01 9.522295e-01 -2.065440e-01 3.109589e-02 1.230578e-01
1.900000e+09 3.308536e-02 1.298147e-01 9.481295e-01 -2.171625e-01 9.481295e-01 -2.171625e-01 3.343110e-02 1.295209e-01
2.000000e+09 3.550807e-02 1.362716e-01 9.438506e-01 -2.276629e-01 9.438506e-01 -2.276629e-01 3.587843e-02 1.359360e-01
2.100000e+09 3.804346e-02 1.426819e-01 9.393971e-01 -2.380416e-01 9.393971e-01 -2.380416e-01 3.843746e-02 1.423015e-01
2.200000e+09 4.069133e-02 1.490439e-01 9.347736e-01 -2.482950e-01 9.347736e-01 -2.482950e-01 4.110771e-02 1.486157e-01
2.300000e+09 4.345149e-02 1.553558e-01 9.299848e-01 -2.584196e-01 9.299848e-01 -2.584196e-01 4.388874e-02 1.548767e-01
2.400000e+09 4.632367e-02 1.616157e-01 9.250353e-01 -2.684122e-01 9.250353e-01 -2.684122e-01 4.678005e-02 1.610828e-01
2.500000e+09 4.930761e-02 1.678216e-01 9.199299e-01 -2.782695e-01 9.199299e-01 -2.782695e-01 4.978111e-02 1.672321e-01
2.600000e+09 5.240296e-02 1.739715e-01 9.146734e-01 -2.879885e-01 9.146734e-01 -2.879885e-01 5.289137e-02 1.733227e-01
2.700000e+09 5.560926e-02 1.800632e-01 9.092709e-01 -2.975666e-01 9.092709e-01 -2.975666e-01 5.611016e-02 1.793526e-01
2.800000e+09 5.892583e-02 1.860943e-01 9.037270e-01 -3.070013e-01 9.037270e-01 -3.070013e-01 5.943658e-02 1.853195e-01
2.900000e+09 6.235184e-02 1.920622e-01 8.980464e-01 -3.162905e-01 8.980464e-01 -3.162905e-01 6.286963e-02 1.912210e-01
3.000000e+09 6.588631e-02 1.979645e-01 8.922340e-01 -3.254323e-01 8.922340e-01 -3.254323e-01 6.640816e-02 1.970548e-01
3.100000e+09 6.952817e-02 2.037984e-01 8.862946e-01 -3.344248e-01 8.862946e-01 -3.344248e-01 7.005094e-02 2.028184e-01
3.200000e+09 7.327616e-02 2.095615e-01 8.802328e-01 -3.432664e-01 8.802328e-01 -3.432664e-01 7.379659e-02 2.085095e-01
3.300000e+09 7.712894e-02 2.152512e-01 8.740533e-01 -3.519557e-01 8.740533e-01 -3.519557e-01 7.764364e-02 2.141257e-01
3.400000e+09 8.108501e-02 2.208648e-01 8.677609e-01 -3.604915e-01 8.677609e-01 -3.604915e-01 8.159048e-02 2.196645e-01
3.500000e+09 8.514275e-02 2.263998e-01 8.613601e-01 -3.688726e-01 8.613601e-01 -3.688726e-01 8.563540e-02 2.251237e-01
3.600000e+09 8.930042e-02 2.318537e-01 8.548557e-01 -3.770981e-01 8.548557e-01 -3.770981e-01 8.977657e-02 2.305009e-01
3.700000e+09 9.355613e-02 2.372240e-01 8.482521e-01 -3.851673e-01 8.482521e-01 -3.851673e-01 9.401208e-02 2.357938e-01
3.800000e+09 9.790791e-02 2.425083e-01 8.415539e-01 -3.930794e-01 8.415539e-01 -3.930794e-01 9.833987e-02 2.410003e-01
3.900000e+09 1.023537e-01 2.477042e-01 8.347655e-01 -4.008341e-01 8.347655e-01 -4.008341e-01 1.027578e-01 2.461182e-01
4.000000e+09 1.068912e-01 2.528095e-01 8.278914e-01 -4.084309e-01 8.278914e-01 -4.084309e-01 1.072637e-01 2.511453e-01
4.100000e+09 1.115181e-01 2.578218e-01 8.209358e-01 -4.158697e-01 8.209358e-01 -4.158697e-01 1.118553e-01 2.560798e-01
4.200000e+09 1.162322e-01 2.627392e-01 8.139030e-01 -4.231503e-01 8.139030e-01 -4.231503e-01 1.165301e-01 2.609195e-01
4.300000e+09 1.210308e-01 2.675595e-01 8.067973e-01 -4.302729e-01 8.067973e-01 -4.302729e-01 1.212857e-01 2.656628e-01
4.400000e+09 1.259114e-01 2.722807e-01 7.996228e-01 -4.372374e-01 7.996228e-01 -4.372374e-01 1.261196e-01 2.703078e-01
4.500000e+09 1.308714e-01 2.769011e-01 7.923835e-01 -4.440443e-01 7.923835e-01 -4.440443e-01 1.310292e-01 2.748528e-01
4.600000e+09 1.359080e-01 2.814188e-01 7.850835e-01 -4.506938e-01 7.850835e-01 -4.506938e-01 1.360117e-01 2.792962e-01
4.700000e+09 1.410186e-01 2.858322e-01 7.777266e-01 -4.571864e-01 7.777266e-01 -4.571864e-01 1.410645e-01 2.836366e-01
4.800000e+09 1.462001e-01 2.901398e-01 7.703168e-01 -4.635227e-01 7.703168e-01 -4.635227e-01 1.461849e-01 2.878725e-01
4.900000e+09 1.514498e-01 2.943401e-01 7.628579e-01 -4.697034e-01 7.628579e-01 -4.697034e-01 1.513699e-01 2.920027e-01
5.000000e+09 1.567648e-01 2.984318e-01 7.553535e-01 -4.757293e-01 7.553535e-01 -4.757293e-01 1.566168e-01 2.960260e-01
5.100000e+09 1.621421e-01 3.024137e-01 7.478072e-01 -4.816012e-01 7.478072e-01 -4.816012e-01 1.619228e-01 2.999413e-01
5.200000e+09 1.675787e-01 3.062847e-01 7.402227e-01 -4.873199e-01 7.402227e-01 -4.873199e-01 1.672848e-01 3.037477e-01
5.300000e+09 1.730717e-01 3.100440e-01 7.326034e-01 -4.928865e-01 7.326034e-01 -4.928865e-01 1.727002e-01 3.074446e-01
5.400000e+09 1.786181e-01 3.136910e-01 7.249528e-01 -4.983017e-01 7.249528e-01 -4.983017e-01 1.781660e-01 3.110313e-01
5.500000e+09 1.842151e-01 3.172249e-01 7.172742e-01 -5.035665e-01 7.172742e-01 -5.035665e-01 1.836793e-01 3.145073e-01
5.600000e+09 1.898595e-01 3.206454e-01 7.095708e-01 -5.086820e-01 7.095708e-01 -5.086820e-01 1.892374e-01 3.178723e-01
5.700000e+09 1.955486e-01 3.239520e-01 7.018460e-01 -5.136494e-01 7.018460e-01 -5.136494e-01 1.948374e-01 3.211260e-01
5.800000e+09 2.012794e-01 3.271443e-01 6.941029e-01 -5.184697e-01 6.941029e-01 -5.184697e-01 2.004765e-01 3.242682e-01
5.900000e+09 2.070489e-01 3.302224e-01 6.863444e-01 -5.231441e-01 6.863444e-01 -5.231441e-01 2.061518e-01 3.272988e-01
6.000000e+09 2.128543e-01 3.331860e-01 6.785737e-01 -5.276741e-01 6.785737e-01 -5.276741e-01 2.118607e-01 3.302177e-01
6.100000e+09 2.186928e-01 3.360351e-01 6.707935e-01 -5.320608e-01 6.707935e-01 -5.320608e-01 2.176004e-01 3.330252e-01
6.200000e+09 2.245615e-01 3.387699e-01 6.630069e-01 -5.363057e-01 6.630069e-01 -5.363057e-01 2.233682e-01 3.357213e-01
6.300000e+09 2.304576e-01 3.413905e-01 6.552165e-01 -5.404102e-01 6.552165e-01 -5.404102e-01 2.291613e-01 3.383063e-01
6.400000e+09 2.363784e-01 3.438972e-01 6.474251e-01 -5.443758e-01 6.474251e-01 -5.443758e-01 2.349773e-01 3.407805e-01
6.500000e+09 2.423212e-01 3.462903e-01 6.396352e-01 -5.482040e-01 6.396352e-01 -5.482040e-01 2.408135e-01 3.431443e-01
6.600000e+09 2.482833e-01 3.485704e-01 6.318495e-01 -5.518963e-01 6.318495e-01 -5.518963e-01 2.466673e-01 3.453982e-01
6.700000e+09 2.542620e-01 3.507378e-01 6.240704e-01 -5.554543e-01 6.240704e-01 -5.554543e-01 2.525362e-01 3.475428e-01
6.800000e+09 2.602548e-01 3.527932e-01 6.163002e-01 -5.588798e-01 6.163002e-01 -5.588798e-01 2.584178e-01 3.495787e-01
6.900000e+09 2.662593e-01 3.547372e-01 6.085415e-01 -5.621742e-01 6.085415e-01 -5.621742e-01 2.643096e-01 3.515065e-01
7.000000e+09 2.722728e-01 3.565706e-01 6.007963e-01 -5.653393e-01 6.007963e-01 -5.653393e-01 2.702094e-01 3.533270e-01
7.100000e+09 2.782930e-01 3.582941e-01 5.930670e-01 -5.683768e-01 5.930670e-01 -5.683768e-01 2.761147e-01 3.550409e-01
7.200000e+09 2.843175e-01 3.599085e-01 5.853555e-01 -5.712884e-01 5.853555e-01 -5.712884e-01 2.820234e-01 3.566493e-01
7.300000e+09 2.903440e-01 3.614148e-01 5.776640e-01 -5.740760e-01 5.776640e-01 -5.740760e-01 2.879332e-01 3.581529e-01
7.400000e+09 2.963703e-01 3.628138e-01 5.699945e-01 -5.767412e-01 5.699945e-01 -5.767412e-01 2.938420e-01 3.595527e-01
7.500000e+09 3.023941e-01 3.641067e-01 5.623488e-01 -5.792859e-01 5.623488e-01 -5.792859e-01 2.997477e-01 3.608497e-01
7.600000e+09 3.084133e-01 3.652944e-01 5.547287e-01 -5.817119e-01 5.547287e-01 -5.817119e-01 3.056483e-01 3.620449e-01
7.700000e+09 3.144258e-01 3.663781e-01 5.471362e-01 -5.840210e-01 5.471362e-01 -5.840210e-01 3.115417e-01 3.631395e-01
7.800000e+09 3.204296e-01 3.673588e-01 5.395728e-01 -5.862150e-01 5.395728e-01 -5.862150e-01 3.174261e-01 3.641346e-01
7.900000e+09 3.264228e-01 3.682377e-01 5.320401e-01 -5.882958e-01 5.320401e-01 -5.882958e-01 3.232995e-01 3.650313e-01
8.000000e+09 3.324033e-01 3.690160e-01 5.245398e-01 -5.902653e-01 5.245398e-01 -5.902653e-01 3.291603e-01 3.658308e-01
8.100000e+09 3.383695e-01 3.696951e-01 5.170734e-01 -5.921253e-01 5.170734e-01 -5.921253e-01 3.350065e-01 3.665344e-01
8.200000e+09 3.443195e-01 3.702761e-01 5.096423e-01 -5.938776e-01 5.096423e-01 -5.938776e-01 3.408366e-01 3.671433e-01
8.300000e+09 3.502515e-01 3.707603e-01 5.022479e-01 -5.955242e-01 5.022479e-01 -5.955242e-01 3.466489e-01 3.676587e-01
8.400000e+09 3.561639e-01 3.711490e-01 4.948914e-01 -5.970669e-01 4.948914e-01 -5.970669e-01 3.524418e-01 3.680819e-01
8.500000e+09 3.620551e-01 3.714437e-01 4.875743e-01 -5.985076e-01 4.875743e-01 -5.985076e-01 3.582138e-01 3.684144e-01
8.600000e+09 3.679236e-01 3.716456e-01 4.802975e-01 -5.998482e-01 4.802975e-01 -5.998482e-01 3.639634e-01 3.686573e-01
8.700000e+09 3.737678e-01 3.717561e-01 4.730624e-01 -6.010904e-01 4.730624e-01 -6.010904e-01 3.696892e-01 3.688121e-01
8.800000e+09 3.795863e-01 3.717767e-01 4.658699e-01 -6.022363e-01 4.658699e-01 -6.022363e-01 3.753898e-01 3.688801e-01
8.900000e+09 3.853778e-01 3.717087e-01 4.587211e-01 -6.032875e-01 4.587211e-01 -6.032875e-01 3.810640e-01 3.688627e-01
9.000000e+09 3.911408e-01 3.715536e-01 4.516169e-01 -6.042461e-01 4.516169e-01 -6.042461e-01 3.867104e-01 3.687612e-01
9.100000e+09 3.968742e-01 3.713127e-01 4.445584e-01 -6.051138e-01 4.445584e-01 -6.051138e-01 3.923279e-01 3.685771e-01
9.200000e+09 4.025768e-01 3.709876e-01 4.375462e-01 -6.058924e-01 4.375462e-01 -6.058924e-01 3.979154e-01 3.683118e-01
9.300000e+09 4.082472e-01 3.705796e-01 4.305813e-01 -6.065837e-01 4.305813e-01 -6.065837e-01 4.034716e-01 3.679666e-01
9.400000e+09 4.138846e-01 3.700901e-01 4.236645e-01 -6.071897e-01 4.236645e-01 -6.071897e-01 4.089956e-01 3.675429e-01
9.500000e+09 4.194877e-01 3.695208e-01 4.167963e-01 -6.077120e-01 4.167963e-01 -6.077120e-01 4.144864e-01 3.670423e-01
9.600000e+09 4.250555e-01 3.688729e-01 4.099775e-01 -6.081524e-01 4.099775e-01 -6.081524e-01 4.199431e-01 3.664659e-01
9.700000e+09 4.305872e-01 3.681480e-01 4.032087e-01 -6.085127e-01 4.032087e-01 -6.085127e-01 4.253646e-01 3.658154e-01
9.800000e+09 4.360818e-01 3.673474e-01 3.964905e-01 -6.087947e-01 3.964905e-01 -6.087947e-01 4.307501e-01 3.650920e-01
9.900000e+09 4.415385e-01 3.664726e-01 3.898234e-01 -6.090001e-01 3.898234e-01 -6.090001e-01 4.360989e-01 3.642971e-01
1.000000e+10 4.469563e-01 3.655251e-01 3.832078e-01 -6.091305e-01 3.832078e-01 -6.091305e-01 4.414102e-01 3.634322e-01
1.010000e+10 4.523346e-01 3.645063e-01 3.766443e-01 -6.091878e-01 3.766443e-01 -6.091878e-01 4.466832e-01 3.624987e-01
1.020000e+10 4.576726e-01 3.634175e-01 3.701332e-01 -6.091735e-01 3.701332e-01 -6.091735e-01 4.519172e-01 3.614978e-01
1.030000e+10 4.629696e-01 3.622603e-01 3.636749e-01 -6.090894e-01 3.636749e-01 -6.090894e-01 4.571116e-01 3.604310e-01
1.040000e+10 4.682250e-01 3.610359e-01 3.572697e-01 -6.089370e-01 3.572697e-01 -6.089370e-01 4.622658e-01 3.592996e-01
1.050000e+10 4.734381e-01 3.597459e-01 3.509179e-01 -6.087180e-01 3.509179e-01 -6.087180e-01 4.673791e-01 3.581050e-01
1.060000e+10 4.786085e-01 3.583915e-01 3.446197e-01 -6.084340e-01 3.446197e-01 -6.084340e-01 4.724512e-01 3.568484e-01
1.070000e+10 4.837355e-01 3.569742e-01 3.383754e-01 -6.080866e-01 3.383754e-01 -6.080866e-01 4.774814e-01 3.555313e-01
1.080000e+10 4.888187e-01 3.554952e-01 3.321852e-01 -6.076773e-01 3.321852e-01 -6.076773e-01 4.824694e-01 3.541549e-01
1.090000e+10 4.938576e-01 3.539560e-01 3.260492e-01 -6.072077e-01 3.260492e-01 -6.072077e-01 4.874146e-01 3.527206e-01
1.100000e+10 4.988518e-01 3.523578e-01 3.199675e-01 -6.066792e-01 3.199675e-01 -6.066792e-01 4.923167e-01 3.512295e-01
1.110000e+10 5.038009e-01 3.507020e-01 3.139402e-01 -6.060934e-01 3.139402e-01 -6.060934e-01 4.971754e-01 3.496830e-01
1.120000e+10 5.087045e-01 3.489899e-01 3.079674e-01 -6.054518e-01 3.079674e-01 -6.054518e-01 5.019902e-01 3.480823e-01
1.130000e+10 5.135623e-01 3.472227e-01 3.020492e-01 -6.047557e-01 3.020492e-01 -6.047557e-01 5.067609e-01 3.464286e-01
1.140000e+10 5.183741e-01 3.454017e-01 2.961854e-01 -6.040067e-01 2.961854e-01 -6.040067e-01 5.114872e-01 3.447233e-01
1.150000e+10 5.231395e-01 3.435282e-01 2.903761e-01 -6.032061e-01 2.903761e-01 -6.032061e-01 5.161689e-01 3.429673e-01
1.160000e+10 5.278584e-01 3.416033e-01 2.846213e-01 -6.023552e-01 2.846213e-01 -6.023552e-01 5.208058e-01 3.411621e-01
1.170000e+10 5.325304e-01 3.396283e-01 2.789209e-01 -6.014556e-01 2.789209e-01 -6.014556e-01 5.253975e-01 3.393086e-01
1.180000e+10 5.371555e-01 3.376044e-01 2.732748e-01 -6.005084e-01 2.732748e-01 -6.005084e-01 5.299441e-01 3.374081e-01
1.190000e+10 5.417334e-01 3.355327e-01 2.676829e-01 -5.995150e-01 2.676829e-01 -5.995150e-01 5.344453e-01 3.354617e-01
1.200000e+10 5.462641e-01 3.334144e-01 2.621450e-01 -5.984767e-01 2.621450e-01 -5.984767e-01 5.389010e-01 3.334705e-01
1.210000e+10 5.507473e-01 3.312507e-01 2.566610e-01 -5.973947e-01 2.566610e-01 -5.973947e-01 5.433110e-01 3.314356e-01
1.220000e+10 5.551831e-01 3.290426e-01 2.512308e-01 -5.962703e-01 2.512308e-01 -5.962703e-01 5.476755e-01 3.293581e-01
1.230000e+10 5.595713e-01 3.267912e-01 2.458540e-01 -5.951047e-01 2.458540e-01 -5.951047e-01 5.519941e-01 3.272390e-01
1.240000e+10 5.639119e-01 3.244977e-01 2.405306e-01 -5.938991e-01 2.405306e-01 -5.938991e-01 5.562670e-01 3.250794e-01
1.250000e+10 5.682049e-01 3.221631e-01 2.352603e-01 -5.926547e-01 2.352603e-01 -5.926547e-01 5.604941e-01 3.228802e-01
1.260000e+10 5.724503e-01 3.197883e-01 2.300429e-01 -5.913727e-01 2.300429e-01 -5.913727e-01 5.646754e-01 3.206426e-01
1.270000e+10 5.766480e-01 3.173746e-01 2.248780e-01 -5.900540e-01 2.248780e-01 -5.900540e-01 5.688109e-01 3.183675e-01
1.280000e+10 5.807981e-01 3.149227e-01 2.197655e-01 -5.887000e-01 2.197655e-01 -5.887000e-01 5.729006e-01 3.160558e-01
1.290000e+10 5.849006e-01 3.124338e-01 2.147050e-01 -5.873116e-01 2.147050e-01 -5.873116e-01 5.769446e-01 3.137085e-01
1.300000e+10 5.889556e-01 3.099088e-01 2.096962e-01 -5.858899e-01 2.096962e-01 -5.858899e-01 5.809429e-01 3.113265e-01
1.310000e+10 5.929632e-01 3.073486e-01 2.047389e-01 -5.844360e-01 2.047389e-01 -5.844360e-01 5.848956e-01 3.089107e-01
1.320000e+10 5.969234e-01 3.047542e-01 1.998326e-01 -5.829508e-01 1.998326e-01 -5.829508e-01 5.888029e-01 3.064620e-01
1.330000e+10 6.008363e-01 3.021264e-01 1.949772e-01 -5.814354e-01 1.949772e-01 -5.814354e-01 5.926647e-01 3.039813e-01
1.340000e+10 6.047021e-01 2.994662e-01 1.901721e-01 -5.798908e-01 1.901721e-01 -5.798908e-01 5.964812e-01 3.014695e-01
1.350000e+10 6.085208e-01 2.967744e-01 1.854171e-01 -5.783178e-01 1.854171e-01 -5.783178e-01 6.002525e-01 2.989273e-01
1.360000e+10 6.122926e-01 2.940518e-01 1.807118e-01 -5.767175e-01 1.807118e-01 -5.767175e-01 6.039787e-01 2.963557e-01
1.370000e+10 6.160177e-01 2.912993e-01 1.760558e-01 -5.750908e-01 1.760558e-01 -5.750908e-01 6.076601e-01 2.937553e-01
1.380000e+10 6.196962e-01 2.885177e-01 1.714488e-01 -5.734385e-01 1.714488e-01 -5.734385e-01 6.112967e-01 2.911270e-01
1.390000e+10 6.233282e-01 2.857077e-01 1.668903e-01 -5.717616e-01 1.668903e-01 -5.717616e-01 6.148887e-01 2.884715e-01
1.400000e+10 6.269140e-01 2.828703e-01 1.623800e-01 -5.700608e-01 1.623800e-01 -5.700608e-01 6.184363e-01 2.857895e-01
1.410000e+10 6.304536e-01 2.800060e-01 1.579174e-01 -5.683371e-01 1.579174e-01 -5.683371e-01 6.219396e-01 2.830819e-01
1.420000e+10 6.339474e-01 2.771157e-01 1.535021e-01 -5.665912e-01 1.535021e-01 -5.665912e-01 6.253988e-01 2.803493e-01
1.430000e+10 6.373954e-01 2.742000e-01 1.491338e-01 -5.648240e-01 1.491338e-01 -5.648240e-01 6.288142e-01 2.775924e-01
1.440000e+10 6.407980e-01 2.712597e-01 1.448119e-01 -5.630362e-01 1.448119e-01 -5.630362e-01 6.321858e-01 2.748119e-01
1.450000e+10 6.441552e-01 2.682954e-01 1.405362e-01 -5.612286e-01 1.405362e-01 -5.612286e-01 6.355140e-01 2.720084e-01
1.460000e+10 6.474673e-01 2.653078e-01 1.363060e-01 -5.594020e-01 1.363060e-01 -5.594020e-01 6.387989e-01 2.691826e-01
1.470000e+10 6.507346e-01 2.622976e-01 1.321211e-01 -5.575570e-01 1.321211e-01 -5.575570e-01 6.420408e-01 2.663351e-01
1.480000e+10 6.539572e-01 2.592654e-01 1.279809e-01 -5.556944e-01 1.279809e-01 -5.556944e-01 6.452398e-01 2.634665e-01
1.490000e+10 6.571354e-01 2.562118e-01 1.238851e-01 -5.538149e-01 1.238851e-01 -5.538149e-01 6.483962e-01 2.605774e-01
1.500000e+10 6.602694e-01 2.531374e-01 1.198331e-01 -5.519191e-01 1.198331e-01 -5.519191e-01 6.515101e-01 2.576685e-01
1.510000e+10 6.633594e-01 2.500428e-01 1.158245e-01 -5.500078e-01 1.158245e-01 -5.500078e-01 6.545819e-01 2.547401e-01
1.520000e+10 6.664057e-01 2.469287e-01 1.118590e-01 -5.480814e-01 1.118590e-01 -5.480814e-01 6.576119e-01 2.517931e-01
1.530000e+10 6.694088e-01 2.437956e-01 1.079362e-01 -5.461406e-01 1.079362e-01 -5.461406e-01 6.606002e-01 2.488281e-01
1.540000e+10 6.723688e-01 2.406443e-01 1.040558e-01 -5.441858e-01 1.040558e-01 -5.441858e-01 6.635474e-01 2.458456e-01
1.550000e+10 6.752861e-01 2.374754e-01 1.002175e-01 -5.422176e-01 1.002175e-01 -5.422176e-01 6.664537e-01 2.428464e-01
1.560000e+10 6.781611e-01 2.342895e-01 9.642092e-02 -5.402365e-01 9.642092e-02 -5.402365e-01 6.693194e-01 2.398310e-01
1.570000e+10 6.809941e-01 2.310873e-01 9.266574e-02 -5.382429e-01 9.266574e-02 -5.382429e-01 6.721449e-01 2.368001e-01
1.580000e+10 6.837854e-01 2.278692e-01 8.895164e-02 -5.362373e-01 8.895164e-02 -5.362373e-01 6.749305e-01 2.337542e-01
1.590000e+10 6.865354e-01 2.246360e-01 8.527827e-02 -5.342201e-01 8.527827e-02 -5.342201e-01 6.776765e-01 2.306940e-01
1.600000e+10 6.892443e-01 2.213882e-01 8.164531e-02 -5.321919e-01 8.164531e-02 -5.321919e-01 6.803834e-01 2.276200e-01
1.610000e+10 6.919126e-01 2.181263e-01 7.805243e-02 -5.301530e-01 7.805243e-02 -5.301530e-01 6.830513e-01 2.245328e-01
1.620000e+10 6.945406e-01 2.148509e-01 7.449929e-02 -5.281039e-01 7.449929e-02 -5.281039e-01 6.856808e-01 2.214329e-01
1.630000e+10 6.971286e-01 2.115626e-01 7.098557e-02 -5.260449e-01 7.098557e-02 -5.260449e-01 6.882720e-01 2.183209e-01
1.640000e+10 6.996770e-01 2.082618e-01 6.751093e-02 -5.239764e-01 6.751093e-02 -5.239764e-01 6.908254e-01 2.151972e-01
1.650000e+10 7.021860e-01 2.049491e-01 6.407504e-02 -5.218988e-01 6.407504e-02 -5.218988e-01 6.933414e-01 2.120624e-01
1.660000e+10 7.046561e-01 2.016250e-01 6.067758e-02 -5.198126e-01 6.067758e-02 -5.198126e-01 6.958201e-01 2.089171e-01
1.670000e+10 7.070875e-01 1.982900e-01 5.731822e-02 -5.177179e-01 5.731822e-02 -5.177179e-01 6.982620e-01 2.057617e-01
1.680000e+10 7.094806e-01 1.949445e-01 5.399664e-02 -5.156153e-01 5.399664e-02 -5.156153e-01 7.006675e-01 2.025966e-01
1.690000e+10 7.118358e-01 1.915892e-01 5.071250e-02 -5.135050e-01 5.071250e-02 -5.135050e-01 7.030368e-01 1.994224e-01
1.700000e+10 7.141533e-01 1.882243e-01 4.746550e-02 -5.113873e-01 4.746550e-02 -5.113873e-01 7.053703e-01 1.962396e-01
1.710000e+10 7.164335e-01 1.848504e-01 4.425530e-02 -5.092625e-01 4.425530e-02 -5.092625e-01 7.076684e-01 1.930485e-01
1.720000e+10 7.186768e-01 1.814680e-01 4.108159e-02 -5.071311e-01 4.108159e-02 -5.071311e-01 7.099313e-01 1.898497e-01
1.730000e+10 7.208834e-01 1.780774e-01 3.794405e-02 -5.049931e-01 3.794405e-02 -5.049931e-01 7.121595e-01 1.866435e-01
1.740000e+10 7.230538e-01 1.746791e-01 3.484237e-02 -5.028490e-01 3.484237e-02 -5.028490e-01 7.143531e-01 1.834305e-01
1.750000e+10 7.251881e-01 1.712736e-01 3.177622e-02 -5.006989e-01 3.177622e-02 -5.006989e-01 7.165127e-01 1.802109e-01
1.760000e+10 7.272869e-01 1.678612e-01 2.874532e-02 -4.985432e-01 2.874532e-02 -4.985432e-01 7.186385e-01 1.769853e-01
1.770000e+10 7.293503e-01 1.644424e-01 2.574933e-02 -4.963821e-01 2.574933e-02 -4.963821e-01 7.207308e-01 1.737541e-01
1.780000e+10 7.313787e-01 1.610176e-01 2.278797e-02 -4.942159e-01 2.278797e-02 -4.942159e-01 7.227900e-01 1.705176e-01
1.790000e+10 7.333724e-01 1.575871e-01 1.986093e-02 -4.920446e-01 1.986093e-02 -4.920446e-01 7.248163e-01 1.672762e-01
1.800000e+10 7.353318e-01 1.541513e-01 1.696791e-02 -4.898687e-01 1.696791e-02 -4.898687e-01 7.268101e-01 1.640303e-01
1.810000e+10 7.372571e-01 1.507106e-01 1.410862e-02 -4.876883e-01 1.410862e-02 -4.876883e-01 7.287718e-01 1.607803e-01
1.820000e+10 7.391488e-01 1.472655e-01 1.128277e-02 -4.855036e-01 1.128277e-02 -4.855036e-01 7.307016e-01 1.575266e-01
1.830000e+10 7.410070e-01 1.438162e-01 8.490060e-03 -4.833147e-01 8.490060e-03 -4.833147e-01 7.325998e-01 1.542695e-01
1.840000e+10 7.428321e-01 1.403631e-01 5.730217e-03 -4.811220e-01 5.730217e-03 -4.811220e-01 7.344668e-01 1.510094e-01
1.850000e+10 7.446245e-01 1.369066e-01 3.002956e-03 -4.789255e-01 3.002956e-03 -4.789255e-01 7.363029e-01 1.477466e-01
1.860000e+10 7.463843e-01 1.334470e-01 3.079987e-04 -4.767254e-01 3.079987e-04 -4.767254e-01 7.381083e-01 1.444816e-01
1.870000e+10 7.481120e-01 1.299847e-01 -2.354929e-03 -4.745220e-01 -2.354929e-03 -4.745220e-01 7.398834e-01 1.412146e-01
1.880000e+10 7.498078e-01 1.265199e-01 -4.986098e-03 -4.723153e-01 -4.986098e-03 -4.723153e-01 7.416284e-01 1.379459e-01
1.890000e+10 7.514721e-01 1.230531e-01 -7.585777e-03 -4.701056e-01 -7.585777e-03 -4.701056e-01 7.433438e-01 1.346760e-01
1.900000e+10 7.531050e-01 1.195845e-01 -1.015423e-02 -4.678929e-01 -1.015423e-02 -4.678929e-01 7.450297e-01 1.314051e-01
1.910000e+10 7.547069e-01 1.161145e-01 -1.269172e-02 -4.656774e-01 -1.269172e-02 -4.656774e-01 7.466865e-01 1.281336e-01
1.920000e+10 7.562782e-01 1.126433e-01 -1.519851e-02 -4.634592e-01 -1.519851e-02 -4.634592e-01 7.483145e-01 1.248617e-01
1.930000e+10 7.578190e-01 1.091714e-01 -1.767484e-02 -4.612385e-01 -1.767484e-02 -4.612385e-01 7.499139e-01 1.215899e-01
1.940000e+10 7.593297e-01 1.056990e-01 -2.012098e-02 -4.590154e-01 -2.012098e-02 -4.590154e-01 7.514850e-01 1.183184e-01
1.950000e+10 7.608105e-01 1.022263e-01 -2.253717e-02 -4.567900e-01 -2.253717e-02 -4.567900e-01 7.530282e-01 1.150474e-01
1.960000e+10 7.622618e-01 9.875383e-02 -2.492365e-02 -4.545624e-01 -2.492365e-02 -4.545624e-01 7.545436e-01 1.117774e-01
1.970000e+10 7.636838e-01 9.528173e-02 -2.728068e-02 -4.523327e-01 -2.728068e-02 -4.523327e-01 7.560317e-01 1.085086e-01
1.980000e+10 7.650768e-01 9.181033e-02 -2.960849e-02 -4.501011e-01 -2.960849e-02 -4.501011e-01 7.574926e-01 1.052412e-01
1.990000e+10 7.664410e-01 8.833992e-02 -3.190733e-02 -4.478676e-01 -3.190733e-02 -4.478676e-01 7.589266e-01 1.019757e-01
2.000000e+10 7.677768e-01 8.487079e-02 -3.417743e-02 -4.456323e-01 -3.417743e-02 -4.456323e-01 7.603341e-01 9.871229e-02
