! Touchstone simulation data from EMX version 5.7
# Hz S RI R 50
4.000000e+08 4.823782e-02 1.295214e-01 9.477275e-01 -1.757231e-01 9.477275e-01 -1.757231e-01 4.830798e-02 1.294539e-01
5.000000e+08 6.079959e-02 1.592617e-01 9.329558e-01 -2.166667e-01 9.329558e-01 -2.166667e-01 6.089304e-02 1.591376e-01
6.000000e+08 7.560152e-02 1.874189e-01 9.154961e-01 -2.558321e-01 9.154961e-01 -2.558321e-01 7.571102e-02 1.872167e-01
7.000000e+08 9.239466e-02 2.138177e-01 8.956177e-01 -2.930189e-01 8.956177e-01 -2.930189e-01 9.250732e-02 2.135146e-01
8.000000e+08 1.109261e-01 2.383230e-01 8.735959e-01 -3.280688e-01 8.735959e-01 -3.280688e-01 1.110230e-01 2.378963e-01
9.000000e+08 1.309423e-01 2.608359e-01 8.497082e-01 -3.608627e-01 8.497082e-01 -3.608627e-01 1.309987e-01 2.602642e-01
1.000000e+09 1.521927e-01 2.812915e-01 8.242305e-01 -3.913176e-01 8.242305e-01 -3.913176e-01 1.521785e-01 2.805564e-01
1.100000e+09 1.744329e-01 2.996570e-01 7.974333e-01 -4.193857e-01 7.974333e-01 -4.193857e-01 1.743130e-01 2.987437e-01
1.200000e+09 1.974281e-01 3.159291e-01 7.695779e-01 -4.450508e-01 7.695779e-01 -4.450508e-01 1.971641e-01 3.148274e-01
1.300000e+09 2.209570e-01 3.301313e-01 7.409126e-01 -4.683260e-01 7.409126e-01 -4.683260e-01 2.205072e-01 3.288362e-01
1.400000e+09 2.448139e-01 3.423100e-01 7.116702e-01 -4.892501e-01 7.116702e-01 -4.892501e-01 2.441348e-01 3.408219e-01
1.500000e+09 2.688107e-01 3.525314e-01 6.820654e-01 -5.078836e-01 6.820654e-01 -5.078836e-01 2.678580e-01 3.508565e-01
1.600000e+09 2.927786e-01 3.608774e-01 6.522936e-01 -5.243052e-01 6.522936e-01 -5.243052e-01 2.915078e-01 3.590274e-01
1.700000e+09 3.165681e-01 3.674421e-01 6.225298e-01 -5.386074e-01 6.225298e-01 -5.386074e-01 3.149356e-01 3.654342e-01
1.800000e+09 3.400495e-01 3.723281e-01 5.929291e-01 -5.508938e-01 5.929291e-01 -5.508938e-01 3.380132e-01 3.701849e-01
1.900000e+09 3.631116e-01 3.756440e-01 5.636265e-01 -5.612750e-01 5.636265e-01 -5.612750e-01 3.606319e-01 3.733929e-01
2.000000e+09 3.856616e-01 3.775012e-01 5.347382e-01 -5.698665e-01 5.347382e-01 -5.698665e-01 3.827015e-01 3.751740e-01
2.100000e+09 4.076232e-01 3.780117e-01 5.063627e-01 -5.767859e-01 5.063627e-01 -5.767859e-01 4.041491e-01 3.756442e-01
2.200000e+09 4.289355e-01 3.772866e-01 4.785816e-01 -5.821506e-01 4.785816e-01 -5.821506e-01 4.249177e-01 3.749179e-01
2.300000e+09 4.495514e-01 3.754342e-01 4.514619e-01 -5.860768e-01 4.514619e-01 -5.860768e-01 4.449643e-01 3.731062e-01
2.400000e+09 4.694364e-01 3.725588e-01 4.250566e-01 -5.886776e-01 4.250566e-01 -5.886776e-01 4.642584e-01 3.703158e-01
2.500000e+09 4.885668e-01 3.687601e-01 3.994068e-01 -5.900622e-01 3.994068e-01 -5.900622e-01 4.827807e-01 3.666479e-01
2.600000e+09 5.069283e-01 3.641324e-01 3.745429e-01 -5.903352e-01 3.745429e-01 -5.903352e-01 5.005212e-01 3.621981e-01
2.700000e+09 5.245149e-01 3.587643e-01 3.504859e-01 -5.895959e-01 3.504859e-01 -5.895959e-01 5.174781e-01 3.570558e-01
2.800000e+09 5.413271e-01 3.527384e-01 3.272488e-01 -5.879383e-01 3.272488e-01 -5.879383e-01 5.336563e-01 3.513037e-01
2.900000e+09 5.573714e-01 3.461313e-01 3.048376e-01 -5.854507e-01 3.048376e-01 -5.854507e-01 5.490663e-01 3.450184e-01
3.000000e+09 5.726585e-01 3.390134e-01 2.832518e-01 -5.822160e-01 2.832518e-01 -5.822160e-01 5.637226e-01 3.382697e-01
3.100000e+09 5.872022e-01 3.314491e-01 2.624852e-01 -5.783114e-01 2.624852e-01 -5.783114e-01 5.776427e-01 3.311211e-01
3.200000e+09 6.010192e-01 3.234976e-01 2.425273e-01 -5.738087e-01 2.425273e-01 -5.738087e-01 5.908467e-01 3.236303e-01
3.300000e+09 6.141287e-01 3.152126e-01 2.233642e-01 -5.687743e-01 2.233642e-01 -5.687743e-01 6.033568e-01 3.158497e-01
3.400000e+09 6.265513e-01 3.066430e-01 2.049793e-01 -5.632692e-01 2.049793e-01 -5.632692e-01 6.151967e-01 3.078262e-01
3.500000e+09 6.383093e-01 2.978333e-01 1.873535e-01 -5.573495e-01 1.873535e-01 -5.573495e-01 6.263910e-01 2.996025e-01
3.600000e+09 6.494256e-01 2.888234e-01 1.704662e-01 -5.510665e-01 1.704662e-01 -5.510665e-01 6.369650e-01 2.912165e-01
3.700000e+09 6.599235e-01 2.796496e-01 1.542955e-01 -5.444673e-01 1.542955e-01 -5.444673e-01 6.469441e-01 2.827023e-01
3.800000e+09 6.698267e-01 2.703443e-01 1.388187e-01 -5.375946e-01 1.388187e-01 -5.375946e-01 6.563537e-01 2.740900e-01
3.900000e+09 6.791590e-01 2.609365e-01 1.240121e-01 -5.304875e-01 1.240121e-01 -5.304875e-01 6.652190e-01 2.654065e-01
4.000000e+09 6.879437e-01 2.514524e-01 1.098522e-01 -5.231813e-01 1.098522e-01 -5.231813e-01 6.735647e-01 2.566757e-01
4.100000e+09 6.962038e-01 2.419152e-01 9.631511e-02 -5.157080e-01 9.631511e-02 -5.157080e-01 6.814149e-01 2.479184e-01
4.200000e+09 7.039620e-01 2.323454e-01 8.337702e-02 -5.080966e-01 8.337702e-02 -5.080966e-01 6.887929e-01 2.391532e-01
4.300000e+09 7.112402e-01 2.227614e-01 7.101444e-02 -5.003735e-01 7.101444e-02 -5.003735e-01 6.957214e-01 2.303962e-01
4.400000e+09 7.180597e-01 2.131794e-01 5.920423e-02 -4.925621e-01 5.920423e-02 -4.925621e-01 7.022222e-01 2.216614e-01
4.500000e+09 7.244411e-01 2.036136e-01 4.792370e-02 -4.846838e-01 4.792370e-02 -4.846838e-01 7.083162e-01 2.129611e-01
4.600000e+09 7.304043e-01 1.940767e-01 3.715068e-02 -4.767576e-01 3.715068e-02 -4.767576e-01 7.140234e-01 2.043060e-01
4.700000e+09 7.359683e-01 1.845796e-01 2.686362e-02 -4.688007e-01 2.686362e-02 -4.688007e-01 7.193630e-01 1.957052e-01
4.800000e+09 7.411515e-01 1.751320e-01 1.704159e-02 -4.608283e-01 1.704159e-02 -4.608283e-01 7.243530e-01 1.871665e-01
4.900000e+09 7.459713e-01 1.657421e-01 7.664323e-03 -4.528541e-01 7.664323e-03 -4.528541e-01 7.290110e-01 1.786965e-01
5.000000e+09 7.504445e-01 1.564172e-01 -1.287739e-03 -4.448904e-01 -1.287739e-03 -4.448904e-01 7.333534e-01 1.703008e-01
5.100000e+09 7.545870e-01 1.471635e-01 -9.833474e-03 -4.369479e-01 -9.833474e-03 -4.369479e-01 7.373958e-01 1.619842e-01
5.200000e+09 7.584141e-01 1.379863e-01 -1.799105e-02 -4.290363e-01 -1.799105e-02 -4.290363e-01 7.411531e-01 1.537504e-01
5.300000e+09 7.619403e-01 1.288899e-01 -2.577795e-02 -4.211639e-01 -2.577795e-02 -4.211639e-01 7.446393e-01 1.456027e-01
5.400000e+09 7.651793e-01 1.198783e-01 -3.321088e-02 -4.133384e-01 -3.321088e-02 -4.133384e-01 7.478676e-01 1.375434e-01
5.500000e+09 7.681445e-01 1.109548e-01 -4.030560e-02 -4.055658e-01 -4.030560e-02 -4.055658e-01 7.508510e-01 1.295749e-01
5.600000e+09 7.708486e-01 1.021221e-01 -4.707711e-02 -3.978518e-01 -4.707711e-02 -3.978518e-01 7.536016e-01 1.216990e-01
5.700000e+09 7.733035e-01 9.338259e-02 -5.353978e-02 -3.902012e-01 -5.353978e-02 -3.902012e-01 7.561309e-01 1.139170e-01
5.800000e+09 7.755208e-01 8.473810e-02 -5.970732e-02 -3.826179e-01 -5.970732e-02 -3.826179e-01 7.584499e-01 1.062297e-01
5.900000e+09 7.775114e-01 7.619003e-02 -6.559281e-02 -3.751056e-01 -6.559281e-02 -3.751056e-01 7.605687e-01 9.863784e-02
6.000000e+09 7.792855e-01 6.773942e-02 -7.120875e-02 -3.676671e-01 -7.120875e-02 -3.676671e-01 7.624974e-01 9.114162e-02
6.100000e+09 7.808529e-01 5.938700e-02 -7.656708e-02 -3.603051e-01 -7.656708e-02 -3.603051e-01 7.642449e-01 8.374106e-02
6.200000e+09 7.822230e-01 5.113320e-02 -8.167916e-02 -3.530216e-01 -8.167916e-02 -3.530216e-01 7.658201e-01 7.643592e-02
6.300000e+09 7.834046e-01 4.297820e-02 -8.655585e-02 -3.458182e-01 -8.655585e-02 -3.458182e-01 7.672312e-01 6.922577e-02
6.400000e+09 7.844060e-01 3.492194e-02 -9.120748e-02 -3.386964e-01 -9.120748e-02 -3.386964e-01 7.684860e-01 6.211001e-02
6.500000e+09 7.852352e-01 2.696420e-02 -9.564393e-02 -3.316572e-01 -9.564393e-02 -3.316572e-01 7.695919e-01 5.508787e-02
6.600000e+09 7.858996e-01 1.910453e-02 -9.987459e-02 -3.247013e-01 -9.987459e-02 -3.247013e-01 7.705559e-01 4.815845e-02
6.700000e+09 7.864063e-01 1.134240e-02 -1.039084e-01 -3.178293e-01 -1.039084e-01 -3.178293e-01 7.713844e-01 4.132075e-02
6.800000e+09 7.867623e-01 3.677080e-03 -1.077540e-01 -3.110414e-01 -1.077540e-01 -3.110414e-01 7.720838e-01 3.457369e-02
6.900000e+09 7.869737e-01 -3.892222e-03 -1.114194e-01 -3.043377e-01 -1.114194e-01 -3.043377e-01 7.726599e-01 2.791607e-02
7.000000e+09 7.870467e-01 -1.136642e-02 -1.149125e-01 -2.977182e-01 -1.149125e-01 -2.977182e-01 7.731183e-01 2.134667e-02
7.100000e+09 7.869871e-01 -1.874650e-02 -1.182406e-01 -2.911826e-01 -1.182406e-01 -2.911826e-01 7.734642e-01 1.486418e-02
7.200000e+09 7.868002e-01 -2.603353e-02 -1.214107e-01 -2.847305e-01 -1.214107e-01 -2.847305e-01 7.737026e-01 8.467283e-03
7.300000e+09 7.864912e-01 -3.322863e-02 -1.244297e-01 -2.783614e-01 -1.244297e-01 -2.783614e-01 7.738382e-01 2.154594e-03
7.400000e+09 7.860651e-01 -4.033297e-02 -1.273040e-01 -2.720748e-01 -1.273040e-01 -2.720748e-01 7.738754e-01 -4.075276e-03
7.500000e+09 7.855264e-01 -4.734776e-02 -1.300396e-01 -2.658698e-01 -1.300396e-01 -2.658698e-01 7.738184e-01 -1.022374e-02
7.600000e+09 7.848795e-01 -5.427424e-02 -1.326424e-01 -2.597458e-01 -1.326424e-01 -2.597458e-01 7.736712e-01 -1.629222e-02
7.700000e+09 7.841286e-01 -6.111368e-02 -1.351179e-01 -2.537019e-01 -1.351179e-01 -2.537019e-01 7.734376e-01 -2.228215e-02
7.800000e+09 7.832776e-01 -6.786736e-02 -1.374716e-01 -2.477370e-01 -1.374716e-01 -2.477370e-01 7.731210e-01 -2.819496e-02
7.900000e+09 7.823303e-01 -7.453658e-02 -1.397084e-01 -2.418503e-01 -1.397084e-01 -2.418503e-01 7.727248e-01 -3.403208e-02
8.000000e+09 7.812901e-01 -8.112265e-02 -1.418333e-01 -2.360408e-01 -1.418333e-01 -2.360408e-01 7.722523e-01 -3.979493e-02
8.100000e+09 7.801604e-01 -8.762686e-02 -1.438508e-01 -2.303072e-01 -1.438508e-01 -2.303072e-01 7.717063e-01 -4.548492e-02
8.200000e+09 7.789444e-01 -9.405054e-02 -1.457654e-01 -2.246486e-01 -1.457654e-01 -2.246486e-01 7.710898e-01 -5.110344e-02
8.300000e+09 7.776451e-01 -1.003950e-01 -1.475813e-01 -2.190638e-01 -1.475813e-01 -2.190638e-01 7.704055e-01 -5.665189e-02
8.400000e+09 7.762653e-01 -1.066615e-01 -1.493025e-01 -2.135516e-01 -1.493025e-01 -2.135516e-01 7.696557e-01 -6.213162e-02
8.500000e+09 7.748077e-01 -1.128513e-01 -1.509329e-01 -2.081108e-01 -1.509329e-01 -2.081108e-01 7.688431e-01 -6.754398e-02
8.600000e+09 7.732748e-01 -1.189657e-01 -1.524761e-01 -2.027404e-01 -1.524761e-01 -2.027404e-01 7.679697e-01 -7.289030e-02
8.700000e+09 7.716691e-01 -1.250060e-01 -1.539358e-01 -1.974389e-01 -1.539358e-01 -1.974389e-01 7.670378e-01 -7.817187e-02
8.800000e+09 7.699928e-01 -1.309734e-01 -1.553152e-01 -1.922053e-01 -1.553152e-01 -1.922053e-01 7.660494e-01 -8.338998e-02
8.900000e+09 7.682480e-01 -1.368690e-01 -1.566176e-01 -1.870384e-01 -1.566176e-01 -1.870384e-01 7.650064e-01 -8.854587e-02
9.000000e+09 7.664368e-01 -1.426942e-01 -1.578461e-01 -1.819368e-01 -1.578461e-01 -1.819368e-01 7.639105e-01 -9.364079e-02
9.100000e+09 7.645611e-01 -1.484501e-01 -1.590037e-01 -1.768994e-01 -1.590037e-01 -1.768994e-01 7.627636e-01 -9.867591e-02
9.200000e+09 7.626228e-01 -1.541378e-01 -1.600932e-01 -1.719249e-01 -1.600932e-01 -1.719249e-01 7.615672e-01 -1.036524e-01
9.300000e+09 7.606235e-01 -1.597584e-01 -1.611173e-01 -1.670122e-01 -1.611173e-01 -1.670122e-01 7.603229e-01 -1.085715e-01
9.400000e+09 7.585648e-01 -1.653132e-01 -1.620786e-01 -1.621600e-01 -1.620786e-01 -1.621600e-01 7.590320e-01 -1.134342e-01
9.500000e+09 7.564484e-01 -1.708031e-01 -1.629796e-01 -1.573671e-01 -1.629796e-01 -1.573671e-01 7.576960e-01 -1.182417e-01
9.600000e+09 7.542755e-01 -1.762292e-01 -1.638227e-01 -1.526323e-01 -1.638227e-01 -1.526323e-01 7.563161e-01 -1.229950e-01
9.700000e+09 7.520476e-01 -1.815927e-01 -1.646102e-01 -1.479543e-01 -1.646102e-01 -1.479543e-01 7.548935e-01 -1.276951e-01
9.800000e+09 7.497660e-01 -1.868944e-01 -1.653444e-01 -1.433320e-01 -1.653444e-01 -1.433320e-01 7.534294e-01 -1.323431e-01
9.900000e+09 7.474316e-01 -1.921354e-01 -1.660273e-01 -1.387643e-01 -1.660273e-01 -1.387643e-01 7.519249e-01 -1.369401e-01
1.000000e+10 7.450458e-01 -1.973166e-01 -1.666609e-01 -1.342498e-01 -1.666609e-01 -1.342498e-01 7.503808e-01 -1.414868e-01
1.010000e+10 7.426096e-01 -2.024389e-01 -1.672472e-01 -1.297875e-01 -1.672472e-01 -1.297875e-01 7.487983e-01 -1.459844e-01
1.020000e+10 7.401238e-01 -2.075033e-01 -1.677881e-01 -1.253762e-01 -1.677881e-01 -1.253762e-01 7.471781e-01 -1.504336e-01
1.030000e+10 7.375894e-01 -2.125105e-01 -1.682853e-01 -1.210147e-01 -1.682853e-01 -1.210147e-01 7.455212e-01 -1.548354e-01
1.040000e+10 7.350073e-01 -2.174616e-01 -1.687406e-01 -1.167019e-01 -1.687406e-01 -1.167019e-01 7.438282e-01 -1.591906e-01
1.050000e+10 7.323781e-01 -2.223571e-01 -1.691557e-01 -1.124368e-01 -1.691557e-01 -1.124368e-01 7.420999e-01 -1.635001e-01
1.060000e+10 7.297028e-01 -2.271980e-01 -1.695321e-01 -1.082180e-01 -1.695321e-01 -1.082180e-01 7.403370e-01 -1.677646e-01
1.070000e+10 7.269818e-01 -2.319849e-01 -1.698713e-01 -1.040447e-01 -1.698713e-01 -1.040447e-01 7.385400e-01 -1.719851e-01
1.080000e+10 7.242159e-01 -2.367186e-01 -1.701749e-01 -9.991564e-02 -1.701749e-01 -9.991564e-02 7.367097e-01 -1.761621e-01
1.090000e+10 7.214056e-01 -2.413998e-01 -1.704443e-01 -9.582978e-02 -1.704443e-01 -9.582978e-02 7.348466e-01 -1.802964e-01
1.100000e+10 7.185515e-01 -2.460291e-01 -1.706808e-01 -9.178606e-02 -1.706808e-01 -9.178606e-02 7.329510e-01 -1.843888e-01
1.110000e+10 7.156539e-01 -2.506072e-01 -1.708858e-01 -8.778341e-02 -1.708858e-01 -8.778341e-02 7.310236e-01 -1.884399e-01
1.120000e+10 7.127134e-01 -2.551347e-01 -1.710605e-01 -8.382078e-02 -1.710605e-01 -8.382078e-02 7.290647e-01 -1.924504e-01
1.130000e+10 7.097303e-01 -2.596121e-01 -1.712062e-01 -7.989714e-02 -1.712062e-01 -7.989714e-02 7.270747e-01 -1.964209e-01
1.140000e+10 7.067049e-01 -2.640400e-01 -1.713240e-01 -7.601145e-02 -1.713240e-01 -7.601145e-02 7.250540e-01 -2.003520e-01
1.150000e+10 7.036377e-01 -2.684189e-01 -1.714151e-01 -7.216270e-02 -1.714151e-01 -7.216270e-02 7.230029e-01 -2.042442e-01
1.160000e+10 7.005287e-01 -2.727492e-01 -1.714806e-01 -6.834987e-02 -1.714806e-01 -6.834987e-02 7.209217e-01 -2.080983e-01
1.170000e+10 6.973783e-01 -2.770315e-01 -1.715216e-01 -6.457196e-02 -1.715216e-01 -6.457196e-02 7.188106e-01 -2.119145e-01
1.180000e+10 6.941867e-01 -2.812662e-01 -1.715390e-01 -6.082796e-02 -1.715390e-01 -6.082796e-02 7.166699e-01 -2.156936e-01
1.190000e+10 6.909539e-01 -2.854536e-01 -1.715339e-01 -5.711690e-02 -1.715339e-01 -5.711690e-02 7.144998e-01 -2.194360e-01
1.200000e+10 6.876802e-01 -2.895940e-01 -1.715072e-01 -5.343778e-02 -1.715072e-01 -5.343778e-02 7.123005e-01 -2.231421e-01
1.210000e+10 6.843656e-01 -2.936879e-01 -1.714599e-01 -4.978964e-02 -1.714599e-01 -4.978964e-02 7.100721e-01 -2.268124e-01
1.220000e+10 6.810101e-01 -2.977356e-01 -1.713929e-01 -4.617149e-02 -1.713929e-01 -4.617149e-02 7.078147e-01 -2.304472e-01
1.230000e+10 6.776139e-01 -3.017372e-01 -1.713069e-01 -4.258237e-02 -1.713069e-01 -4.258237e-02 7.055284e-01 -2.340471e-01
1.240000e+10 6.741768e-01 -3.056930e-01 -1.712030e-01 -3.902132e-02 -1.712030e-01 -3.902132e-02 7.032133e-01 -2.376122e-01
1.250000e+10 6.706989e-01 -3.096033e-01 -1.710818e-01 -3.548738e-02 -1.710818e-01 -3.548738e-02 7.008694e-01 -2.411431e-01
1.260000e+10 6.671800e-01 -3.134681e-01 -1.709442e-01 -3.197960e-02 -1.709442e-01 -3.197960e-02 6.984969e-01 -2.446400e-01
1.270000e+10 6.636202e-01 -3.172876e-01 -1.707910e-01 -2.849701e-02 -1.707910e-01 -2.849701e-02 6.960956e-01 -2.481032e-01
1.280000e+10 6.600193e-01 -3.210619e-01 -1.706228e-01 -2.503867e-02 -1.706228e-01 -2.503867e-02 6.936656e-01 -2.515330e-01
1.290000e+10 6.563771e-01 -3.247911e-01 -1.704404e-01 -2.160363e-02 -1.704404e-01 -2.160363e-02 6.912068e-01 -2.549296e-01
1.300000e+10 6.526935e-01 -3.284751e-01 -1.702445e-01 -1.819092e-02 -1.702445e-01 -1.819092e-02 6.887191e-01 -2.582933e-01
1.310000e+10 6.489683e-01 -3.321140e-01 -1.700357e-01 -1.479960e-02 -1.700357e-01 -1.479960e-02 6.862026e-01 -2.616242e-01
1.320000e+10 6.452013e-01 -3.357078e-01 -1.698148e-01 -1.142872e-02 -1.698148e-01 -1.142872e-02 6.836571e-01 -2.649225e-01
1.330000e+10 6.413923e-01 -3.392562e-01 -1.695823e-01 -8.077314e-03 -1.695823e-01 -8.077314e-03 6.810825e-01 -2.681884e-01
1.340000e+10 6.375409e-01 -3.427592e-01 -1.693389e-01 -4.744423e-03 -1.693389e-01 -4.744423e-03 6.784786e-01 -2.714221e-01
1.350000e+10 6.336471e-01 -3.462167e-01 -1.690852e-01 -1.429081e-03 -1.690852e-01 -1.429081e-03 6.758454e-01 -2.746235e-01
1.360000e+10 6.297104e-01 -3.496283e-01 -1.688217e-01 1.869682e-03 -1.688217e-01 1.869682e-03 6.731826e-01 -2.777928e-01
1.370000e+10 6.257305e-01 -3.529940e-01 -1.685490e-01 5.152842e-03 -1.685490e-01 5.152842e-03 6.704901e-01 -2.809300e-01
1.380000e+10 6.217072e-01 -3.563132e-01 -1.682676e-01 8.421384e-03 -1.682676e-01 8.421384e-03 6.677677e-01 -2.840351e-01
1.390000e+10 6.176400e-01 -3.595859e-01 -1.679781e-01 1.167630e-02 -1.679781e-01 1.167630e-02 6.650152e-01 -2.871082e-01
1.400000e+10 6.135287e-01 -3.628114e-01 -1.676810e-01 1.491859e-02 -1.676810e-01 1.491859e-02 6.622323e-01 -2.901492e-01
1.410000e+10 6.093728e-01 -3.659895e-01 -1.673768e-01 1.814928e-02 -1.673768e-01 1.814928e-02 6.594189e-01 -2.931580e-01
1.420000e+10 6.051720e-01 -3.691197e-01 -1.670659e-01 2.136937e-02 -1.670659e-01 2.136937e-02 6.565746e-01 -2.961345e-01
1.430000e+10 6.009259e-01 -3.722013e-01 -1.667489e-01 2.457992e-02 -1.667489e-01 2.457992e-02 6.536993e-01 -2.990787e-01
1.440000e+10 5.966341e-01 -3.752339e-01 -1.664261e-01 2.778196e-02 -1.664261e-01 2.778196e-02 6.507926e-01 -3.019903e-01
1.450000e+10 5.922961e-01 -3.782169e-01 -1.660980e-01 3.097658e-02 -1.660980e-01 3.097658e-02 6.478543e-01 -3.048691e-01
1.460000e+10 5.879116e-01 -3.811495e-01 -1.657650e-01 3.416484e-02 -1.657650e-01 3.416484e-02 6.448840e-01 -3.077151e-01
1.470000e+10 5.834800e-01 -3.840310e-01 -1.654275e-01 3.734786e-02 -1.654275e-01 3.734786e-02 6.418816e-01 -3.105278e-01
1.480000e+10 5.790009e-01 -3.868607e-01 -1.650859e-01 4.052676e-02 -1.650859e-01 4.052676e-02 6.388465e-01 -3.133070e-01
1.490000e+10 5.744740e-01 -3.896376e-01 -1.647405e-01 4.370267e-02 -1.647405e-01 4.370267e-02 6.357787e-01 -3.160525e-01
1.500000e+10 5.698986e-01 -3.923610e-01 -1.643917e-01 4.687676e-02 -1.643917e-01 4.687676e-02 6.326776e-01 -3.187638e-01
1.510000e+10 5.652745e-01 -3.950297e-01 -1.640399e-01 5.005022e-02 -1.640399e-01 5.005022e-02 6.295430e-01 -3.214406e-01
1.520000e+10 5.606011e-01 -3.976429e-01 -1.636852e-01 5.322425e-02 -1.636852e-01 5.322425e-02 6.263746e-01 -3.240823e-01
1.530000e+10 5.558784e-01 -4.001992e-01 -1.633278e-01 5.639996e-02 -1.633278e-01 5.639996e-02 6.231724e-01 -3.266886e-01
1.540000e+10 5.511064e-01 -4.026976e-01 -1.629676e-01 5.957849e-02 -1.629676e-01 5.957849e-02 6.199364e-01 -3.292587e-01
1.550000e+10 5.462850e-01 -4.051366e-01 -1.626046e-01 6.276098e-02 -1.626046e-01 6.276098e-02 6.166667e-01 -3.317921e-01
1.560000e+10 5.414143e-01 -4.075150e-01 -1.622388e-01 6.594860e-02 -1.622388e-01 6.594860e-02 6.133634e-01 -3.342880e-01
1.570000e+10 5.364942e-01 -4.098314e-01 -1.618702e-01 6.914253e-02 -1.618702e-01 6.914253e-02 6.100266e-01 -3.367459e-01
1.580000e+10 5.315249e-01 -4.120843e-01 -1.614986e-01 7.234398e-02 -1.614986e-01 7.234398e-02 6.066563e-01 -3.391650e-01
1.590000e+10 5.265064e-01 -4.142722e-01 -1.611240e-01 7.555420e-02 -1.611240e-01 7.555420e-02 6.032526e-01 -3.415445e-01
1.600000e+10 5.214388e-01 -4.163935e-01 -1.607462e-01 7.877445e-02 -1.607462e-01 7.877445e-02 5.998157e-01 -3.438837e-01
1.610000e+10 5.163223e-01 -4.184465e-01 -1.603650e-01 8.200601e-02 -1.603650e-01 8.200601e-02 5.963456e-01 -3.461816e-01
1.620000e+10 5.111570e-01 -4.204295e-01 -1.599803e-01 8.525021e-02 -1.599803e-01 8.525021e-02 5.928425e-01 -3.484375e-01
1.630000e+10 5.059431e-01 -4.223407e-01 -1.595918e-01 8.850839e-02 -1.595918e-01 8.850839e-02 5.893065e-01 -3.506504e-01
1.640000e+10 5.006810e-01 -4.241782e-01 -1.591992e-01 9.178194e-02 -1.591992e-01 9.178194e-02 5.857377e-01 -3.528194e-01
1.650000e+10 4.953709e-01 -4.259402e-01 -1.588023e-01 9.507226e-02 -1.588023e-01 9.507226e-02 5.821365e-01 -3.549435e-01
1.660000e+10 4.900131e-01 -4.276246e-01 -1.584008e-01 9.838081e-02 -1.584008e-01 9.838081e-02 5.785028e-01 -3.570216e-01
1.670000e+10 4.846081e-01 -4.292293e-01 -1.579942e-01 1.017091e-01 -1.579942e-01 1.017091e-01 5.748371e-01 -3.590527e-01
1.680000e+10 4.791563e-01 -4.307522e-01 -1.575822e-01 1.050585e-01 -1.575822e-01 1.050585e-01 5.711395e-01 -3.610357e-01
1.690000e+10 4.736582e-01 -4.321909e-01 -1.571642e-01 1.084308e-01 -1.571642e-01 1.084308e-01 5.674103e-01 -3.629694e-01
1.700000e+10 4.681146e-01 -4.335433e-01 -1.567397e-01 1.118274e-01 -1.567397e-01 1.118274e-01 5.636498e-01 -3.648527e-01
1.710000e+10 4.625260e-01 -4.348069e-01 -1.563082e-01 1.152501e-01 -1.563082e-01 1.152501e-01 5.598584e-01 -3.666842e-01
1.720000e+10 4.568932e-01 -4.359792e-01 -1.558690e-01 1.187004e-01 -1.558690e-01 1.187004e-01 5.560365e-01 -3.684627e-01
1.730000e+10 4.512170e-01 -4.370577e-01 -1.554215e-01 1.221800e-01 -1.554215e-01 1.221800e-01 5.521844e-01 -3.701868e-01
1.740000e+10 4.454985e-01 -4.380398e-01 -1.549647e-01 1.256909e-01 -1.549647e-01 1.256909e-01 5.483026e-01 -3.718552e-01
1.750000e+10 4.397386e-01 -4.389226e-01 -1.544980e-01 1.292346e-01 -1.544980e-01 1.292346e-01 5.443917e-01 -3.734664e-01
1.760000e+10 4.339385e-01 -4.397035e-01 -1.540204e-01 1.328131e-01 -1.540204e-01 1.328131e-01 5.404523e-01 -3.750189e-01
1.770000e+10 4.280996e-01 -4.403794e-01 -1.535308e-01 1.364283e-01 -1.535308e-01 1.364283e-01 5.364848e-01 -3.765112e-01
1.780000e+10 4.222231e-01 -4.409476e-01 -1.530283e-01 1.400820e-01 -1.530283e-01 1.400820e-01 5.324902e-01 -3.779417e-01
1.790000e+10 4.163107e-01 -4.414048e-01 -1.525115e-01 1.437763e-01 -1.525115e-01 1.437763e-01 5.284690e-01 -3.793088e-01
1.800000e+10 4.103640e-01 -4.417481e-01 -1.519793e-01 1.475131e-01 -1.519793e-01 1.475131e-01 5.244221e-01 -3.806108e-01
1.810000e+10 4.043848e-01 -4.419741e-01 -1.514302e-01 1.512944e-01 -1.514302e-01 1.512944e-01 5.203505e-01 -3.818460e-01
1.820000e+10 3.983753e-01 -4.420796e-01 -1.508627e-01 1.551224e-01 -1.508627e-01 1.551224e-01 5.162550e-01 -3.830126e-01
1.830000e+10 3.923375e-01 -4.420613e-01 -1.502752e-01 1.589991e-01 -1.502752e-01 1.589991e-01 5.121368e-01 -3.841088e-01
1.840000e+10 3.862739e-01 -4.419158e-01 -1.496660e-01 1.629268e-01 -1.496660e-01 1.629268e-01 5.079971e-01 -3.851328e-01
1.850000e+10 3.801870e-01 -4.416395e-01 -1.490330e-01 1.669075e-01 -1.490330e-01 1.669075e-01 5.038370e-01 -3.860826e-01
1.860000e+10 3.740796e-01 -4.412289e-01 -1.483743e-01 1.709436e-01 -1.483743e-01 1.709436e-01 4.996580e-01 -3.869564e-01
1.870000e+10 3.679548e-01 -4.406805e-01 -1.476877e-01 1.750371e-01 -1.476877e-01 1.750371e-01 4.954616e-01 -3.877522e-01
1.880000e+10 3.618158e-01 -4.399906e-01 -1.469708e-01 1.791904e-01 -1.469708e-01 1.791904e-01 4.912493e-01 -3.884680e-01
1.890000e+10 3.556661e-01 -4.391555e-01 -1.462210e-01 1.834058e-01 -1.462210e-01 1.834058e-01 4.870229e-01 -3.891017e-01
1.900000e+10 3.495095e-01 -4.381716e-01 -1.454357e-01 1.876854e-01 -1.454357e-01 1.876854e-01 4.827842e-01 -3.896514e-01
1.910000e+10 3.433502e-01 -4.370351e-01 -1.446119e-01 1.920317e-01 -1.446119e-01 1.920317e-01 4.785352e-01 -3.901148e-01
1.920000e+10 3.371924e-01 -4.357423e-01 -1.437464e-01 1.964467e-01 -1.437464e-01 1.964467e-01 4.742781e-01 -3.904901e-01
1.930000e+10 3.310408e-01 -4.342895e-01 -1.428360e-01 2.009328e-01 -1.428360e-01 2.009328e-01 4.700153e-01 -3.907751e-01
1.940000e+10 3.249005e-01 -4.326731e-01 -1.418769e-01 2.054922e-01 -1.418769e-01 2.054922e-01 4.657490e-01 -3.909676e-01
1.950000e+10 3.187769e-01 -4.308893e-01 -1.408655e-01 2.101270e-01 -1.408655e-01 2.101270e-01 4.614822e-01 -3.910657e-01
1.960000e+10 3.126757e-01 -4.289348e-01 -1.397976e-01 2.148394e-01 -1.397976e-01 2.148394e-01 4.572174e-01 -3.910672e-01
1.970000e+10 3.066030e-01 -4.268059e-01 -1.386689e-01 2.196313e-01 -1.386689e-01 2.196313e-01 4.529579e-01 -3.909702e-01
1.980000e+10 3.005653e-01 -4.244993e-01 -1.374748e-01 2.245048e-01 -1.374748e-01 2.245048e-01 4.487068e-01 -3.907727e-01
1.990000e+10 2.945695e-01 -4.220118e-01 -1.362104e-01 2.294616e-01 -1.362104e-01 2.294616e-01 4.444676e-01 -3.904727e-01
2.000000e+10 2.886231e-01 -4.193403e-01 -1.348705e-01 2.345036e-01 -1.348705e-01 2.345036e-01 4.402439e-01 -3.900684e-01
